(set-logic ALL)
(declare-fun var0 () String)
(assert (str.in_re var0 (re.++ (re.* (re.+ (str.to_re "00"))) (re.++ (re.union (re.+ (str.to_re "1")) (re.+ (str.to_re "2"))) (re.++ (re.union (re.union (str.to_re "33") (str.to_re "444")) (re.union (str.to_re "55") (str.to_re "666"))) (re.++ (re.* (re.+ (str.to_re "77"))) (re.++ (re.union (re.* (str.to_re "888")) (re.* (str.to_re "9"))) (re.++ (re.+ (re.* (str.to_re "a"))) (re.++ (re.* (re.union (str.to_re "bb") (str.to_re "c"))) (re.++ (re.union (re.* (str.to_re "ddd")) (re.* (str.to_re "eee"))) (re.++ (re.* (re.+ (str.to_re "f"))) (re.++ (re.* (re.* (str.to_re "ggg"))) (re.++ (re.union (re.* (str.to_re "hh")) (re.* (str.to_re "iii"))) (re.++ (re.union (re.* (str.to_re "j")) (re.* (str.to_re "kkk"))) (re.++ (re.+ (re.+ (str.to_re "lll"))) (re.++ (re.union (re.* (str.to_re "m")) (re.* (str.to_re "nnn"))) (re.++ (re.+ (re.* (str.to_re "o"))) (re.++ (re.+ (re.* (str.to_re "p"))) (re.++ (re.* (re.* (str.to_re "qqq"))) (re.++ (re.union (re.* (str.to_re "r")) (re.* (str.to_re "s"))) (re.++ (re.* (re.* (str.to_re "t"))) (re.++ (re.+ (re.union (str.to_re "u") (str.to_re "vv"))) (re.++ (re.* (re.+ (str.to_re "w"))) (re.++ (re.* (re.* (str.to_re "x"))) (re.++ (re.* (re.+ (str.to_re "yyy"))) (re.++ (re.* (re.union (str.to_re "z") (str.to_re "A"))) (re.++ (re.union (re.* (str.to_re "BB")) (re.* (str.to_re "C"))) (re.++ (re.union (re.+ (str.to_re "D")) (re.+ (str.to_re "E"))) (re.++ (re.* (re.union (str.to_re "FFF") (str.to_re "GG"))) (re.++ (re.union (re.union (str.to_re "HH") (str.to_re "II")) (re.union (str.to_re "JJ") (str.to_re "K"))) (re.++ (re.* (re.+ (str.to_re "L"))) (re.++ (re.union (re.union (str.to_re "MMM") (str.to_re "N")) (re.union (str.to_re "OOO") (str.to_re "P"))) (re.++ (re.+ (re.union (str.to_re "QQQ") (str.to_re "RRR"))) (re.++ (re.union (re.+ (str.to_re "SS")) (re.+ (str.to_re "TTT"))) (re.++ (re.union (re.+ (str.to_re "U")) (re.+ (str.to_re "VV"))) (re.++ (re.union (re.* (str.to_re "W")) (re.* (str.to_re "XXX"))) (re.++ (re.union (re.* (str.to_re "Y")) (re.* (str.to_re "ZZ"))) (re.++ (re.union (re.union (str.to_re "!") (str.to_re """")) (re.union (str.to_re "##") (str.to_re "$$"))) (re.++ (re.* (re.+ (str.to_re "%%"))) (re.++ (re.* (re.union (str.to_re "&&") (str.to_re "'"))) (re.++ (re.+ (re.+ (str.to_re "("))) (re.++ (re.* (re.+ (str.to_re ")"))) (re.++ (re.union (re.+ (str.to_re "**")) (re.+ (str.to_re "+++"))) (re.++ (re.union (re.+ (str.to_re ",,")) (re.+ (str.to_re "-"))) (re.++ (re.+ (re.* (str.to_re "."))) (re.++ (re.union (re.+ (str.to_re "/")) (re.+ (str.to_re "::"))) (re.++ (re.union (re.+ (str.to_re ";")) (re.+ (str.to_re "<"))) (re.++ (re.union (re.union (str.to_re "===") (str.to_re ">>>")) (re.union (str.to_re "?") (str.to_re "@"))) (re.++ (re.+ (re.+ (str.to_re "[[["))) (re.++ (re.* (re.+ (str.to_re "\\\\"))) (re.++ (re.* (re.* (str.to_re "]]"))) (re.++ (re.+ (re.* (str.to_re "^^"))) (re.++ (re.+ (re.+ (str.to_re "___"))) (re.++ (re.+ (re.union (str.to_re "```") (str.to_re "{{"))) (re.++ (re.+ (re.* (str.to_re "|||"))) (re.++ (re.union (re.* (str.to_re "}}}")) (re.* (str.to_re "~"))) (re.++ (re.* (re.* (str.to_re "0"))) (re.++ (re.union (re.* (str.to_re "111")) (re.* (str.to_re "2"))) (re.++ (re.union (re.+ (str.to_re "33")) (re.+ (str.to_re "44"))) (re.++ (re.* (re.union (str.to_re "555") (str.to_re "6"))) (re.++ (re.+ (re.union (str.to_re "77") (str.to_re "888"))) (re.++ (re.+ (re.* (str.to_re "99"))) (re.+ (re.* (str.to_re "a")))))))))))))))))))))))))))))))))))))))))))))))))))))))))))))))))
(assert (not (str.in_re var0 (re.++ (re.+ (re.* (str.to_re "0"))) (re.++ (re.+ (re.* (str.to_re "11"))) (re.++ (re.union (re.union (str.to_re "22") (str.to_re "33")) (re.union (str.to_re "4") (str.to_re "555"))) (re.++ (re.+ (re.+ (str.to_re "666"))) (re.++ (re.+ (re.* (str.to_re "777"))) (re.++ (re.+ (re.union (str.to_re "888") (str.to_re "9"))) (re.++ (re.* (re.* (str.to_re "aa"))) (re.++ (re.* (re.union (str.to_re "bbb") (str.to_re "cc"))) (re.++ (re.union (re.union (str.to_re "dd") (str.to_re "eee")) (re.union (str.to_re "fff") (str.to_re "gg"))) (re.++ (re.* (re.union (str.to_re "hh") (str.to_re "i"))) (re.++ (re.* (re.* (str.to_re "jj"))) (re.++ (re.+ (re.* (str.to_re "kk"))) (re.++ (re.union (re.union (str.to_re "l") (str.to_re "m")) (re.union (str.to_re "nn") (str.to_re "ooo"))) (re.++ (re.* (re.* (str.to_re "pp"))) (re.++ (re.* (re.union (str.to_re "q") (str.to_re "rrr"))) (re.++ (re.union (re.+ (str.to_re "ss")) (re.+ (str.to_re "ttt"))) (re.++ (re.+ (re.+ (str.to_re "u"))) (re.++ (re.+ (re.union (str.to_re "vvv") (str.to_re "ww"))) (re.++ (re.* (re.union (str.to_re "xx") (str.to_re "y"))) (re.++ (re.* (re.* (str.to_re "zzz"))) (re.++ (re.union (re.union (str.to_re "AA") (str.to_re "BBB")) (re.union (str.to_re "CC") (str.to_re "DDD"))) (re.++ (re.* (re.+ (str.to_re "EE"))) (re.++ (re.* (re.* (str.to_re "F"))) (re.++ (re.union (re.* (str.to_re "G")) (re.* (str.to_re "HH"))) (re.++ (re.+ (re.* (str.to_re "II"))) (re.++ (re.union (re.union (str.to_re "JJ") (str.to_re "KKK")) (re.union (str.to_re "LLL") (str.to_re "MM"))) (re.++ (re.+ (re.+ (str.to_re "NN"))) (re.++ (re.+ (re.union (str.to_re "OO") (str.to_re "P"))) (re.++ (re.union (re.+ (str.to_re "Q")) (re.+ (str.to_re "RRR"))) (re.++ (re.union (re.* (str.to_re "SSS")) (re.* (str.to_re "T"))) (re.++ (re.* (re.+ (str.to_re "U"))) (re.++ (re.union (re.+ (str.to_re "V")) (re.+ (str.to_re "WWW"))) (re.++ (re.+ (re.* (str.to_re "XX"))) (re.++ (re.* (re.+ (str.to_re "YYY"))) (re.++ (re.+ (re.union (str.to_re "ZZ") (str.to_re "!!!"))) (re.++ (re.union (re.+ (str.to_re """")) (re.+ (str.to_re "##"))) (re.++ (re.* (re.+ (str.to_re "$"))) (re.++ (re.+ (re.union (str.to_re "%%") (str.to_re "&&&"))) (re.++ (re.* (re.union (str.to_re "'") (str.to_re "("))) (re.++ (re.union (re.+ (str.to_re ")))")) (re.+ (str.to_re "**"))) (re.++ (re.+ (re.union (str.to_re "++") (str.to_re ","))) (re.++ (re.union (re.+ (str.to_re "--")) (re.+ (str.to_re ".."))) (re.++ (re.+ (re.* (str.to_re "///"))) (re.++ (re.union (re.union (str.to_re ":") (str.to_re ";;;")) (re.union (str.to_re "<") (str.to_re "=="))) (re.++ (re.* (re.union (str.to_re ">>") (str.to_re "?"))) (re.++ (re.union (re.* (str.to_re "@@")) (re.* (str.to_re "[[["))) (re.++ (re.+ (re.+ (str.to_re "\\\\"))) (re.++ (re.union (re.+ (str.to_re "]]]")) (re.+ (str.to_re "^"))) (re.++ (re.+ (re.union (str.to_re "_") (str.to_re "`"))) (re.++ (re.+ (re.union (str.to_re "{{") (str.to_re "||"))) (re.++ (re.* (re.+ (str.to_re "}"))) (re.++ (re.union (re.+ (str.to_re "~~~")) (re.+ (str.to_re "000"))) (re.++ (re.* (re.union (str.to_re "111") (str.to_re "22"))) (re.++ (re.union (re.* (str.to_re "3")) (re.* (str.to_re "44"))) (re.++ (re.* (re.* (str.to_re "555"))) (re.++ (re.* (re.* (str.to_re "6"))) (re.++ (re.* (re.union (str.to_re "777") (str.to_re "888"))) (re.++ (re.union (re.union (str.to_re "9") (str.to_re "aa")) (re.union (str.to_re "bbb") (str.to_re "ccc"))) (re.++ (re.* (re.+ (str.to_re "ddd"))) (re.++ (re.union (re.+ (str.to_re "eee")) (re.+ (str.to_re "ff"))) (re.union (re.+ (str.to_re "gg")) (re.+ (str.to_re "h"))))))))))))))))))))))))))))))))))))))))))))))))))))))))))))))))))
(check-sat)